p cnf 150 60
x -2 3 -5 6 8 10 12 -13 -14 -15 -16 17 18 -20 -23 26 -29 32 -33 34 35 38 39 -43 -48 -49 52 53 56 -58 -59 -61 65 69 -71 -74 75 -77 -80 -83 84 85 -86 -91 -92 93 94 95 97 98 99 -101 -105 106 107 109 -110 -113 -115 -116 -120 121 -122 -125 -128 132 -135 138 -139 140 141 -142 -143 -144 145 -147 148 0
x -1 -4 -5 8 11 14 -16 -17 -18 -19 -21 -22 -23 -24 26 -27 -29 31 -33 -34 -35 -36 -37 -39 40 -41 43 44 47 51 54 55 -58 60 -61 64 -66 67 -68 69 -71 72 73 75 -84 85 -87 -88 89 -90 92 -93 94 95 97 -99 101 -102 104 108 -110 -113 114 -116 -117 -118 -119 -123 -124 -125 126 -128 129 -130 -131 135 137 -138 -140 -142 146 -147 -148 0
x -2 5 -6 -7 8 9 11 -14 -15 17 -26 28 30 33 35 -36 -37 -38 -43 44 -47 51 -52 -53 57 58 60 61 -62 -64 -65 70 72 73 -76 78 -79 81 -82 -83 85 89 90 -94 95 97 -100 101 103 105 106 -107 108 109 111 112 -113 114 115 116 -120 -121 122 123 -125 126 128 -129 133 -135 -139 -141 -142 -144 -145 146 0
x 2 -4 5 6 10 15 -18 19 -25 27 -32 -39 -40 -41 43 -44 -46 -47 48 -51 52 -54 55 -58 -63 -64 -66 -67 -69 72 74 76 77 80 85 86 88 -90 93 97 -98 -100 101 103 104 -105 -107 108 -109 -111 113 -115 116 -117 119 -120 121 -123 -124 125 -132 133 134 -136 -139 -140 -141 -144 145 -147 -150 0
x 1 5 7 -13 -16 -18 20 -23 24 -27 -28 29 -31 -38 -39 -40 44 -47 -48 -49 50 51 -52 59 62 -64 -70 -71 74 75 78 -80 81 82 83 84 -85 87 -88 -89 90 -91 92 95 96 -97 101 102 -104 105 106 -109 -112 115 126 -129 -130 -133 -139 -142 143 -145 146 147 0
x -2 3 6 8 -9 -15 -17 -20 21 -25 26 -27 -28 31 32 -36 -38 41 -42 -43 44 45 -48 50 51 52 -54 -55 56 -57 -58 60 61 62 -63 65 67 -74 75 -76 -78 -80 81 -84 -86 90 -91 -92 93 97 -98 -99 100 105 106 107 113 -115 -118 120 -123 124 -125 129 130 -131 135 136 -137 138 -139 -140 -142 -146 -148 0
x -1 4 8 -10 -14 16 17 -19 20 -23 -24 26 27 28 -29 -34 -35 38 44 -45 -46 -47 49 -50 52 -56 58 59 -60 -63 67 -70 -71 -72 74 77 78 -79 80 -83 89 -91 93 -95 96 97 98 100 102 103 -104 105 107 108 109 110 -113 117 -121 123 -125 127 -131 -132 -133 142 -143 145 -146 149 -150 0
x -1 -2 8 10 11 -12 14 16 -17 18 20 -22 -26 28 -29 30 31 -32 -33 37 38 39 40 42 44 45 46 -48 49 -52 56 -62 -65 66 -71 73 77 79 -81 82 83 -85 -88 -90 93 -94 -96 -97 99 101 -102 -105 -109 110 111 -113 -114 115 116 117 -120 121 -123 130 -131 -134 135 136 138 -139 140 -141 -143 145 -149 150 0
x 1 -2 -3 4 -8 10 -11 -13 16 -18 19 -20 -28 -29 32 -33 -34 36 -40 41 -42 44 46 47 51 53 -54 -58 61 62 63 -69 -70 72 74 75 77 79 80 81 -82 83 84 86 89 90 91 -94 96 99 -101 102 103 104 -108 -109 -110 111 114 115 116 120 123 124 125 -126 127 -128 130 131 132 133 -136 -137 138 -141 144 -146 -147 -148 -149 -150 0
x 1 5 -7 8 -11 -12 13 14 17 20 -21 -22 -26 28 -29 33 35 37 38 39 -43 -44 -47 -49 -53 -54 -55 57 58 59 60 -62 -65 68 69 -71 -74 80 -82 85 -86 -90 91 -92 -94 -96 -98 100 101 102 -103 104 105 -106 107 108 -109 110 -111 -113 -114 116 119 -120 121 124 -126 -128 132 -135 -138 139 140 -141 -144 -145 147 -148 149 0
x -1 -4 12 13 17 23 -24 27 31 32 34 -36 -38 -39 40 -43 48 49 50 51 -53 55 56 58 -59 60 62 -64 65 67 70 -74 75 76 78 -81 -83 -86 88 -89 -92 -95 -96 -97 98 99 -101 102 104 -106 -108 109 111 -113 116 -117 120 121 122 123 -125 126 129 -131 133 134 -136 137 138 143 144 -145 -146 147 148 0
x 7 9 -10 -12 13 -15 -18 -21 -22 23 24 -25 -26 -29 33 -34 -36 -38 -39 -40 42 -45 46 -49 52 53 57 58 59 -63 72 -76 -79 -80 -85 86 -87 88 90 92 -94 -96 98 99 -104 105 106 -110 -111 -113 -116 -119 121 123 -124 125 127 -129 -130 131 -135 136 -137 -140 -143 -145 -147 148 149 150 0
x -1 2 -6 9 10 -11 12 -13 15 -18 -19 -20 22 25 -26 -28 29 -31 -32 -33 37 39 -40 -41 -43 44 46 -47 -49 -50 -52 53 54 55 57 59 -62 -66 -67 68 -73 -77 79 80 -82 -84 85 86 -88 -89 90 92 93 94 -96 -101 -102 -106 -108 -109 -111 112 113 -117 -118 119 -120 121 -124 125 -126 127 -128 -129 -130 -135 137 139 -141 142 143 147 -149 -150 0
x -8 -9 10 -18 19 20 21 22 -24 25 -33 -35 -36 -37 38 39 40 -41 -43 44 -45 -48 49 -50 51 -52 -57 59 60 61 -63 -71 74 75 -77 -78 -82 85 -87 89 91 95 -96 -97 98 100 -101 102 -105 111 -112 -113 114 117 -119 120 123 -124 125 -126 -127 128 129 134 136 137 -138 -141 -142 -146 150 0
x 1 -2 4 -5 8 9 -10 12 19 -20 -23 25 27 28 29 -33 34 -38 39 -41 43 46 49 50 54 55 57 58 63 64 -66 67 -68 -69 70 -73 77 -82 -83 -85 -86 88 92 -95 99 -100 101 -105 106 111 112 114 116 -117 119 -120 121 -123 -124 -126 -127 -129 131 132 -133 -136 -138 -139 -140 -141 -142 149 -150 0
x -2 4 -5 6 9 10 -11 -14 -15 18 20 -22 27 32 -35 -37 -42 45 47 -48 -51 -52 -53 -54 -57 -58 59 -60 -63 -66 -67 -68 70 72 73 -75 -76 -78 79 82 83 -84 87 -89 92 -93 -94 -95 96 -97 -99 -108 109 -110 -111 -112 -114 -117 118 -119 -121 -122 -123 -125 -126 -127 -128 129 130 131 -135 -136 -137 138 -139 -140 -142 -143 -145 -146 148 -149 -150 0
x 1 4 5 7 9 12 13 -17 -21 24 -26 27 28 -30 -31 34 35 39 40 -41 -42 -43 -48 -50 51 -52 -53 -54 55 57 61 64 -65 66 -69 -70 71 -72 -74 77 -78 -79 81 -82 -85 -87 -89 -90 -91 -92 93 95 96 98 -100 -102 -105 108 -109 111 -112 -114 -118 123 -124 125 -126 128 -130 132 -133 134 135 136 -138 144 145 -147 -149 0
x 4 5 10 -11 -16 -18 -22 -23 27 28 -29 31 -32 -34 -35 -40 -41 42 -45 46 -47 -48 49 51 52 54 57 61 62 -64 -69 71 74 -75 -77 78 -80 -82 84 85 89 -90 -91 92 -94 97 -103 104 105 -106 110 -111 -112 114 -116 -118 119 -120 -122 123 -125 128 -132 133 -135 -136 -137 138 -139 140 -142 144 147 -149 0
x -1 -2 -4 7 8 10 -12 14 -16 19 20 -22 -25 -26 28 -32 -34 -36 41 42 -44 45 46 49 51 -53 -54 -55 57 -58 -60 62 66 -69 70 71 72 76 78 79 -80 81 -83 86 -87 -89 91 93 -94 -95 -96 -99 100 101 103 -106 -109 -112 114 118 119 -121 -127 128 131 132 134 -139 -144 -148 150 0
x -2 3 5 -7 9 -10 11 12 13 -17 24 26 -27 30 -33 -34 37 -39 41 43 -44 -45 46 48 -50 -51 -52 -53 -55 56 57 58 -59 60 -62 65 66 -67 -69 -70 79 -80 82 -83 84 -89 -91 93 -94 -96 99 -100 -101 102 103 -108 -114 116 118 120 121 123 -124 -125 -126 -128 132 -133 -135 136 138 139 140 142 -143 -145 146 -148 0
x -1 -2 -5 -8 11 -13 16 17 -20 24 -26 -27 -30 36 -37 41 42 45 -46 -51 52 53 -59 -63 -64 -65 66 -67 68 69 -70 -71 -72 75 76 77 79 80 81 82 -86 -88 90 -95 96 100 104 108 111 -112 -113 115 -116 -118 119 -121 122 124 125 126 127 -128 -132 -134 -136 137 140 141 143 -144 -145 -147 -150 0
x -1 -2 3 4 -6 7 -10 -11 13 -14 21 -22 -23 -24 -26 -28 -31 -32 -33 34 -35 -37 39 44 45 48 -55 -59 60 61 -63 -64 -65 67 68 -69 -70 72 73 -74 75 -76 -77 78 80 81 -84 -88 -89 -90 91 92 -94 96 -101 -105 -106 -111 -112 -114 115 116 -117 -120 121 123 -125 128 -136 139 140 -143 -144 -145 146 147 150 0
x -1 2 3 4 -5 -6 -7 -8 -9 -12 -13 14 15 16 18 22 -23 24 25 -29 31 -35 -36 -37 -40 41 44 45 46 51 53 -54 61 -62 -64 65 66 68 70 -71 -72 -75 77 -79 -82 -83 -86 89 -93 94 95 -96 102 103 -105 109 110 113 117 -120 121 123 -124 126 -127 129 130 132 -133 -137 138 140 143 -145 148 -149 0
x -4 -5 6 7 8 -11 -12 14 18 19 -21 25 -27 28 -29 -31 -32 -35 37 -41 42 -43 -46 48 50 51 -52 -53 55 57 59 61 62 -63 -65 69 -70 -71 72 -75 -80 81 82 84 -85 -87 -88 -91 -93 -96 97 -98 101 103 -105 -106 107 -108 -109 111 113 114 -118 119 122 123 -129 -130 -131 -132 -133 135 137 -138 -139 -141 -143 -144 -146 148 -149 150 0
x -2 3 -4 -6 -10 11 -13 -14 16 17 -21 -23 -24 25 26 -28 29 30 -32 -37 -41 43 44 45 49 -53 56 62 -64 -65 -68 69 -73 -76 -77 78 81 -89 -90 91 -92 -94 -95 96 -98 -100 -101 102 -105 106 -110 112 -114 117 -118 121 -122 -125 -127 128 -129 131 -133 135 -137 138 -140 -142 -145 0
x -3 -4 5 -6 -8 10 -11 14 15 16 21 22 -24 26 -28 34 35 36 37 39 41 46 47 48 -51 -52 55 56 57 -66 67 72 -74 77 79 81 83 -85 -86 -89 91 94 -97 -99 -100 101 -103 111 -113 -115 117 -119 -120 126 128 129 -140 -142 -144 -147 -149 0
x -1 -2 3 5 -7 8 11 12 -14 -17 -19 21 22 25 -27 -29 -32 36 -37 39 -42 -44 -46 47 49 50 -51 -52 -54 -56 -58 -61 69 71 72 73 80 82 84 85 -86 88 -92 -94 -98 99 102 103 -105 107 110 111 112 -113 -116 117 118 -119 120 122 -123 -126 129 -130 131 133 -134 136 137 139 -142 144 145 -147 -149 -150 0
x -2 3 -4 -6 -7 9 10 12 -15 16 17 -18 -20 21 23 25 29 30 -31 -34 -37 38 -41 43 -46 -50 -51 -52 56 -57 59 60 62 63 -67 68 69 -70 -71 73 -74 -76 78 -83 84 -86 -88 89 91 -92 -93 94 96 -98 99 -100 101 -104 -105 -106 -109 113 -114 -116 119 -120 -121 -122 123 125 127 -128 -129 -131 133 135 138 -143 -145 -148 -149 0
x -1 6 -9 12 18 19 -20 21 -22 24 25 29 30 -31 33 34 38 -39 40 42 43 -44 -45 47 -48 49 51 -53 54 56 61 62 66 -68 -69 -70 71 -73 74 -76 -77 78 79 -80 81 83 85 -86 -89 -90 92 95 100 101 -102 103 -104 -105 -106 -111 -113 -114 -115 -116 117 -119 121 -122 123 -127 128 131 -133 -134 135 -136 137 -140 -143 144 -146 147 -150 0
x -1 5 8 -12 14 16 -18 -19 -20 -25 29 -31 -32 -33 34 36 -39 42 -43 -44 46 50 -51 -53 -59 -60 -61 62 63 65 -68 72 73 -74 -76 -79 -81 82 -83 -86 -87 -88 -91 93 -94 -96 -97 99 -100 -103 105 107 108 110 114 117 -118 120 -127 -128 -129 -130 131 132 136 -137 -138 144 148 0
x -9 11 12 -13 -18 -19 -21 -22 25 -28 -30 -31 32 -33 -34 -40 48 50 51 -58 59 -60 61 -64 -67 69 71 -72 74 -78 79 -83 84 -85 -88 89 90 -95 -103 104 105 107 -108 -110 -112 113 114 116 -118 -119 -122 -124 -125 127 131 132 133 138 139 140 141 -145 -146 148 0
x -1 6 -7 10 11 13 14 -15 -17 18 19 -29 -31 -36 -37 38 39 41 -42 43 45 49 52 53 54 55 -56 -57 -60 61 62 -63 64 67 -68 -71 -72 75 -76 78 -79 -80 81 83 84 -85 87 89 -90 91 -92 94 96 97 -100 -102 -105 -106 107 108 112 114 -116 119 -129 -130 -134 -136 137 -138 -142 -143 144 -146 -147 149 0
x -1 -2 -4 -7 -9 12 13 14 16 17 18 20 21 23 -25 28 -31 -34 37 40 44 50 -53 -54 55 -57 58 -64 66 -69 -75 77 78 -79 80 -81 -84 85 86 -90 -91 94 96 100 101 104 105 -106 -107 113 114 -116 120 122 -123 125 128 129 -130 -132 -133 -136 -140 143 144 146 -147 -149 150 0
x 1 3 -4 6 -7 8 -9 -11 12 14 15 16 -17 -19 -20 -21 24 -28 -30 34 -35 -36 -37 -39 40 41 -42 43 45 -49 -51 52 53 54 -57 58 -59 61 -62 -63 -65 -66 -67 70 72 -75 81 85 86 89 -91 94 95 -96 -98 101 103 -104 -105 -107 108 -109 -110 112 -115 -116 118 -121 122 -125 126 130 -131 -132 134 136 -137 -139 -140 -144 -145 -147 148 149 -150 0
x 1 5 -7 -8 13 -16 17 -18 -19 22 -23 -26 -30 31 -32 33 40 -41 -42 43 -44 45 -46 -47 -48 50 51 52 54 -55 -56 -58 -61 -64 -65 66 -69 -70 -73 -74 75 -76 81 -82 -84 -86 87 -88 91 92 93 -94 -97 -99 100 -104 106 107 -109 -112 113 -115 -116 -117 122 124 -126 127 130 -131 -133 135 -137 -138 -140 141 144 -145 -148 0
x 1 2 -3 4 -6 7 10 -11 14 -16 18 -19 -22 -26 27 -31 -32 35 37 -38 39 40 41 43 -45 47 -49 -52 53 -54 56 -57 -60 61 62 -63 65 66 67 69 70 72 73 -74 75 76 -77 -79 81 85 -86 -87 -88 89 90 -93 -94 97 98 102 -106 -107 108 -109 110 113 117 -118 -119 120 121 122 -123 -126 -130 131 134 135 -137 138 -143 145 147 148 149 0
x 4 9 11 -13 -14 15 -17 -18 -22 -24 -25 -27 28 29 31 32 35 38 39 40 41 -42 -43 -45 48 49 -50 -52 -55 58 -62 -65 -66 -71 -72 73 75 -77 79 -82 -83 -87 91 97 -99 101 -103 105 -108 -110 111 -112 -113 -120 -122 -125 -127 -129 131 133 -134 135 137 139 146 148 0
x -1 -3 -5 -11 -13 14 -16 18 20 -21 22 24 -25 26 28 35 -36 37 38 -41 -42 -43 44 -46 -49 -50 55 -57 58 -59 61 -63 -64 66 -67 69 -70 71 -72 73 74 -76 77 -78 -79 81 -82 -84 88 90 -91 94 -95 -98 -100 103 -104 -105 -106 -110 -111 -112 113 114 117 -118 120 121 -122 -123 -124 125 126 -127 -128 130 -132 135 139 140 143 -144 145 146 147 149 150 0
x -1 -2 9 -10 -12 13 -14 -15 -16 -19 -22 23 25 31 -34 38 41 -42 -43 47 48 -49 -50 51 -52 -53 -55 -56 60 61 -63 -64 66 -67 70 -71 72 -73 74 79 -80 -86 -87 89 91 -92 95 98 -99 101 -102 104 -106 107 -109 114 -115 116 -118 -120 122 123 125 -126 128 -130 -134 135 136 -137 -139 141 142 144 146 147 0
x 2 -3 5 6 8 9 11 12 13 14 15 17 -18 -19 22 -23 24 25 26 27 -28 33 34 -36 39 -40 41 43 46 48 49 51 53 56 58 -60 68 70 72 75 76 78 -79 -80 -81 82 -84 -85 -89 -90 -91 92 94 97 98 -99 101 102 -103 -107 109 110 111 113 115 118 120 121 -123 -126 -129 -135 139 140 -141 142 143 -144 145 148 -150 0
x -6 -7 8 -12 14 -16 17 19 20 -21 -22 24 25 -26 29 -30 31 -34 38 39 -43 -44 -46 -47 49 -50 51 52 -54 -56 57 58 63 -64 65 66 68 -70 -71 72 -74 -75 -78 79 81 82 83 -84 -85 86 -87 89 90 -91 93 -94 -95 103 -104 107 108 111 112 -113 114 115 120 -121 -122 127 129 131 -133 -134 -136 137 -138 -139 141 146 148 -150 0
x 1 -3 -4 5 10 -13 15 -17 -18 -19 21 23 26 -27 -28 -29 -31 32 -33 -35 -38 -39 40 45 47 -50 -51 52 -54 -57 -58 -59 61 65 -66 -68 72 73 -74 75 -76 78 -79 -80 -83 87 88 -89 90 -92 93 -94 -97 98 -99 101 102 104 -109 111 112 113 115 117 119 -120 122 123 -124 127 -129 -131 132 135 136 137 138 139 141 -142 -147 -148 150 0
x 5 -6 -8 9 -10 -11 14 -16 17 18 19 20 -21 -24 -26 29 -30 -32 35 44 45 46 47 -49 -50 -51 52 -54 -55 56 57 59 60 61 -64 65 66 67 -70 -71 74 -76 77 -80 81 -83 88 -89 -91 -92 94 95 -98 -101 -102 107 -112 116 117 -118 -119 120 -121 -125 -127 128 129 -132 135 137 -138 -139 -140 141 -142 143 -145 147 149 -150 0
x 1 -3 4 -5 7 -10 11 12 -15 16 17 19 26 28 -34 -36 37 39 -40 45 -47 48 -49 -50 57 58 -59 60 -63 65 66 -68 -69 70 -71 73 78 -79 -82 83 -84 85 87 88 -89 -90 -92 -93 -94 98 -103 -104 106 -110 111 -114 -118 -123 -126 130 133 135 137 -139 -141 142 144 149 150 0
x 7 -9 10 -11 -13 -15 16 -19 20 21 -24 -25 26 27 28 -29 33 36 -37 38 41 42 44 46 47 52 -58 -60 61 -62 63 64 -65 -67 -72 73 -76 -78 -81 -84 -85 -87 88 -89 90 91 -92 -94 -95 96 98 -102 108 109 111 112 -114 118 -121 -125 126 131 -132 133 -134 -138 -142 -143 -145 146 -147 149 150 0
x -1 -3 5 7 10 -11 -12 -14 15 17 19 20 -23 -25 -26 -30 31 -33 35 38 -40 41 -42 -43 45 -46 -48 50 53 -55 56 58 -60 -62 -63 64 -66 68 -69 -74 77 78 79 80 -82 -83 84 85 -86 93 95 96 98 99 -100 -106 -108 -111 112 -114 -118 121 -122 -123 -125 -127 128 -129 130 -131 134 -136 -138 140 -141 -142 144 -145 146 -148 0
x -2 3 -4 5 -8 -9 -11 -12 13 15 -16 18 21 23 24 25 26 27 -28 31 33 34 -35 36 38 39 -41 -43 -45 -47 48 50 -52 -54 55 -56 -57 58 -59 62 64 65 66 67 70 -71 -73 -76 81 82 -84 86 87 89 90 -92 -95 -96 100 -102 -103 105 -111 -113 -114 115 -119 -122 123 125 126 127 132 134 -135 136 -138 149 150 0
x 2 3 -8 9 -11 -12 -13 -14 -16 -17 -20 25 26 -28 -31 -32 34 -36 38 -39 40 41 -43 -46 49 53 -54 -55 61 62 -65 68 70 72 73 74 75 -76 80 81 -82 85 -86 -87 93 94 -95 97 -101 -102 -103 109 -111 115 -116 -117 118 119 -122 123 -125 -126 -128 -129 132 133 134 -135 -136 141 142 144 -145 147 -148 0
x -1 8 -9 -12 13 -14 17 -18 -19 -23 -27 -28 29 -30 -31 33 -34 -35 36 37 38 39 43 44 -45 -46 -49 -51 -53 55 56 -57 60 -64 65 -66 -68 -70 74 -78 -80 84 -85 87 -88 89 -91 92 -93 95 -96 98 -100 -102 106 -109 111 -112 113 -114 -116 117 -119 122 -123 -127 -129 -131 132 133 -135 140 -141 -142 -143 150 0
x -1 2 6 7 9 10 13 14 -15 23 25 -26 27 28 29 32 -34 -35 -40 -44 -45 46 47 -49 -52 53 54 -55 56 59 -61 65 -67 69 70 -71 72 73 76 77 79 -81 -83 85 -86 87 -91 -93 96 -97 -98 -100 104 106 113 -114 117 119 -120 123 124 125 -129 131 132 133 -136 137 -139 141 -142 -147 148 -150 0
x -2 -3 -4 -6 -11 -14 17 -18 -21 -22 24 -25 -32 -33 -34 -35 -36 37 -40 43 -46 48 50 53 56 -57 58 62 -63 -65 66 -68 -70 72 73 74 75 -76 -77 82 -83 85 -91 -93 -96 97 99 -100 -103 -107 108 -112 -113 -114 -115 -117 119 -120 122 123 124 125 -126 -129 -131 132 -133 134 135 136 -138 -140 142 143 -144 145 150 0
x -2 -4 5 6 -7 9 13 -14 -21 -22 -23 28 30 -31 -33 -36 -37 -38 39 -42 44 45 -47 -49 -53 55 56 57 -59 -61 63 65 -69 70 -71 73 -75 -76 77 86 -87 91 -94 -100 102 105 108 -110 114 116 -117 120 121 -123 124 -126 -128 -130 -131 132 139 -140 -141 -143 -149 0
x -3 -5 -8 -9 -10 -12 -14 -17 18 -19 21 -22 23 28 -29 -32 33 34 35 -38 -39 -42 44 50 -51 -52 53 -54 -55 57 -59 -61 63 66 -68 -70 71 -72 -74 75 76 -78 -79 -80 82 83 -85 -86 88 90 92 93 98 100 -101 102 -103 -104 106 -107 -109 110 111 -114 -117 -119 -122 -124 -131 -138 -139 140 141 146 147 -148 -149 150 0
x -2 -3 4 -5 6 7 9 10 -12 13 14 16 17 -18 -20 21 -23 -24 27 -32 -35 36 -38 41 43 46 -47 -48 -52 -54 -55 58 -59 -61 62 64 65 -66 69 -71 -73 78 -83 -84 -86 87 92 93 95 -96 99 -100 -102 -103 -104 110 111 113 -115 117 119 120 -121 122 -124 128 -133 135 136 139 147 148 0
x -1 -2 -3 -4 -5 6 7 -11 16 -17 -18 19 20 25 -27 -28 -31 33 -34 -35 -37 38 -39 -40 42 -43 -46 47 -48 54 -55 58 60 65 -68 -69 -70 -71 -72 74 -77 79 80 81 -83 90 -92 93 -98 103 105 -108 109 -111 -115 -117 118 126 -127 -129 -133 -134 135 -138 -142 147 148 149 -150 0
x 1 3 6 -7 -8 9 -10 11 -16 -19 22 24 -26 27 29 30 31 33 -36 37 41 -42 43 44 -45 -46 -48 -49 -50 55 -57 -58 -62 63 -65 68 70 71 -72 74 -75 76 -77 -79 80 -81 -83 86 87 -88 -90 -91 92 -93 -94 95 -98 99 -100 -101 103 -104 -106 -109 113 -114 -115 116 118 119 -121 122 -123 124 125 126 127 129 130 131 -132 134 -137 -139 140 -141 142 -143 -146 147 0
x -2 -3 6 -8 10 11 12 -13 -14 16 19 -21 -23 24 -25 26 27 -28 29 -30 32 -33 34 -35 -37 -40 -41 42 43 -44 -45 50 -51 53 -55 -60 63 64 65 -69 76 -77 78 79 81 84 -85 89 90 -91 92 -93 -98 -101 105 108 -109 110 111 112 -113 114 115 118 119 -120 124 125 -126 128 132 -134 136 137 138 139 140 -141 -142 145 148 -149 0
x -7 -8 9 -10 -12 16 -22 25 -26 27 29 -30 -32 33 -35 -37 38 -40 43 44 46 -48 51 53 55 -56 -57 -58 -59 -60 -63 64 65 67 -69 -71 -72 -74 76 78 80 81 -82 83 -84 87 88 -90 92 -93 -95 -96 -98 99 -103 -104 105 108 109 -110 -112 114 115 116 117 -118 -119 121 124 -130 131 132 -133 -134 -136 -137 -138 -140 -141 142 146 149 -150 0
x -6 -8 10 12 15 19 23 -26 30 -31 37 39 40 43 44 -45 46 47 -48 -50 -52 -54 -55 56 58 63 -67 -68 69 71 73 -74 -76 -77 -82 -83 85 -86 -87 -91 -93 -99 100 -101 -102 -104 105 106 -107 109 113 114 -115 116 -117 -124 -125 127 -130 131 -132 139 -140 -143 -144 0
x -1 -2 -3 5 -6 8 9 -10 11 13 14 -15 -18 -20 -21 22 -26 -28 29 -30 -31 32 33 -34 -35 37 38 -40 -42 -43 44 -45 -46 48 49 50 -52 54 -55 58 -59 -60 61 62 -63 -65 70 71 -72 -73 74 76 -77 -78 -83 84 85 -86 87 -89 -90 91 -93 95 97 103 -104 -105 -108 -110 112 -113 -114 115 -119 120 125 128 129 130 131 -137 138 139 140 -142 -144 146 -149 -150 0
g -45